NAME : amtsp.-96939.tour
COMMENT : Length = -96939
COMMENT : Found by LKH [Keld Helsgaun] Sat Apr  8 12:13:18 2023
TYPE : TOUR
DIMENSION : 23
TOUR_SECTION
1
2
12
13
14
15
16
17
18
19
20
21
22
23
4
7
8
9
10
11
6
5
3
-1
EOF
